minizinc/sudoku_problems2/sudoku_p37.dzn
%
% sudoku_p37.dzn
% See http://www.hakank.org/minizinc/sudoku_gcc.mzn
% 
% This problem is problem 37 from
% Gecode's sudoku.cpp
% http://www.gecode.org/gecode-doc-latest/sudoku_8cpp-source.html
% 
x = array2d(1..n, 1..n, [   
% http://janko.at/Raetsel/Sudoku/304.a.htm
% 37
  _,  _,  _,  _,  9,  _,  _,  _,  5,  _,  _,  _,  3, 11,  _,  _,
  _,  _,  _, 13,  1,  3,  _,  7,  _,  4,  _,  _,  _,  _,  _, 15,
  6,  3,  7,  _,  _,  _,  2,  _,  _,  8,  1, 10, 12,  9,  _,  _,
  _,  2, 16,  _,  _,  5,  _,  _,  _,  _,  _,  _,  _,  1,  8, 13,
  _,  _,  _, 15,  4,  _,  _,  _,  3,  _,  _,  _,  8, 12,  _,  _,
 14,  _, 13,  _,  7,  _,  _,  6,  _,  _, 16,  _,  _,  _, 10,  5,
 12,  5,  _,  6,  _,  _,  3,  _,  _,  _,  _, 15,  _,  2,  _,  _,
  4,  _, 10,  _,  _,  _,  1, 13,  7,  2,  _,  9,  _,  _, 11,  _,
  _, 14,  _,  _, 13,  _,  9, 12, 10,  6,  _,  _,  _, 15,  _,  1,
  _,  _,  9,  _,  5,  _,  _,  _,  _, 14,  _,  _, 13,  _,  2,  6,
 11,  6,  _,  _,  _,  4,  _,  _, 13,  _,  _,  5,  _,  7,  _, 10,
  _,  _, 15,  4,  _,  _,  _, 10,  _,  _,  _, 12,  9,  _,  _,  _,
 10, 11,  4,  _,  _,  _,  _,  _,  _,  _,  2,  _,  _, 16,  6,  _,
  _,  _,  6,  8, 15, 11, 13,  _,  _,  5,  _,  _,  _, 10,  4,  7,
  1,  _,  _,  _,  _,  _,  6,  _,  9,  _, 14,  4, 11,  _,  _,  _,
  _,  _,  3,  2,  _,  _,  _,  5,  _,  _,  _, 11,  _,  _,  _,  _
]);

n = 16;


